c n orig vars 51
p cnf 71 93
61 0
52 -46 0
52 -39 0
52 -53 0
52 -40 0
-52 46 39 53 40 0
53 -7 0
53 -6 0
53 -43 0
53 -44 0
53 -45 0
-53 7 6 43 44 45 0
54 -21 0
54 -20 0
54 -53 0
-54 21 20 53 0
55 -17 0
55 -56 0
55 -16 0
55 -19 0
55 -18 0
-55 17 56 16 19 18 0
56 -31 0
56 -30 0
56 -15 0
56 -14 0
-56 31 30 15 14 0
57 -33 0
57 -32 0
57 -35 0
57 -34 0
-57 33 32 35 34 0
58 -36 0
58 -38 0
58 -37 0
-58 36 38 37 0
59 -5 0
59 -58 0
59 -4 0
59 -57 0
59 -41 0
-59 5 58 4 57 41 0
60 -59 0
60 -71 0
60 -70 0
-60 59 71 70 0
-61 60 0
-61 64 0
-61 69 0
61 -60 -64 -69 0
62 -48 0
62 -47 0
62 -26 0
-62 48 47 26 0
63 -62 0
63 -28 0
63 -2 0
-63 62 28 2 0
64 -25 0
64 -63 0
-64 25 63 0
65 -51 0
65 -1 0
65 -24 0
65 -23 0
-65 51 1 24 23 0
66 -10 0
66 -9 0
66 -8 0
66 -3 0
-66 10 9 8 3 0
67 -50 0
67 -13 0
67 -12 0
67 -11 0
-67 50 13 12 11 0
68 -42 0
68 -65 0
68 -49 0
-68 42 65 49 0
-69 68 0
-69 67 0
-69 27 0
-69 66 0
69 -68 -67 -27 -66 0
70 -22 0
70 -52 0
70 -54 0
-70 22 52 54 0
71 -55 0
71 -17 0
71 -29 0
-71 55 17 29 0
